CMPL model generation - running

CMPL version: 1.11.0
Authors: Thomas Schleiff, Mike Steglich
Distributed under the GPLv3 

create model instance ...
write model instance ...
CMPL model generation - finished

Solver - running


Welcome to IBM(R) ILOG(R) CPLEX(R) Interactive Optimizer 12.7.1.0
  with Simplex, Mixed Integer & Barrier Optimizers
5725-A06 5725-A29 5724-Y48 5724-Y49 5724-Y54 5724-Y55 5655-Y21
Copyright IBM Corp. 1988, 2017.  All Rights Reserved.

Type 'help' for a list of available commands.
Type 'help' followed by a command name for more
information on commands.

CPLEX> Specified objective sense: MINIMIZE
Selected objective  name:  line[1]
Selected RHS        name:  RHS
Selected bound      name:  BOUND
Problem '/tmp/cmpl.T24789.mps' read.
Read time = 0.10 sec. (8.20 ticks)
CPLEX> CPXPARAM_Read_APIEncoding                        "UTF-8"
Tried aggregator 3 times.
MIP Presolve eliminated 18909 rows and 30056 columns.
MIP Presolve modified 340 coefficients.
Aggregator did 900 substitutions.
Reduced MIP has 2546 rows, 3637 columns, and 10607 nonzeros.
Reduced MIP has 3469 binaries, 0 generals, 0 SOSs, and 0 indicators.
Presolve time = 0.11 sec. (41.22 ticks)
Found incumbent of value 2523.355813 after 0.23 sec. (74.74 ticks)
Probing fixed 41 vars, tightened 0 bounds.
Probing time = 0.02 sec. (4.86 ticks)
Tried aggregator 1 time.
MIP Presolve eliminated 0 rows and 41 columns.
MIP Presolve modified 304 coefficients.
Reduced MIP has 2546 rows, 3596 columns, and 10525 nonzeros.
Reduced MIP has 3596 binaries, 0 generals, 0 SOSs, and 0 indicators.
Presolve time = 0.02 sec. (10.22 ticks)
Probing time = 0.01 sec. (2.71 ticks)
Clique table members: 6499.
MIP emphasis: balance optimality and feasibility.
MIP search method: dynamic search.
Parallel mode: none, using 1 thread.
Root relaxation solution time = 0.01 sec. (9.99 ticks)

        Nodes                                         Cuts/
   Node  Left     Objective  IInf  Best Integer    Best Bound    ItCnt     Gap

*     0+    0                         2523.3558       -4.0501           100.16%
*     0     0      integral     0      752.6441      752.6441      552    0.00%
Elapsed time = 0.31 sec. (110.74 ticks, tree = 0.00 MB, solutions = 2)

Root node processing (before b&c):
  Real time             =    0.31 sec. (112.03 ticks)
Sequential b&c:
  Real time             =    0.00 sec. (0.00 ticks)
                          ------------
Total (root+branch&cut) =    0.31 sec. (112.03 ticks)

Solution pool: 2 solutions saved.

MIP - Integer optimal solution:  Objective =  7.5264405300e+02
Solution time =    0.31 sec.  Iterations = 552  Nodes = 0
Deterministic time = 112.13 ticks  (363.98 ticks/sec)

CPLEX> Incumbent solution written to file '/tmp/cmpl.T24789.gsol'.
CPLEX> 
CMPL: Time used for model generation: 1 seconds
CMPL: Time used for solving the model: 1 seconds


Solution written to ASCII file: results/output_generated_conf_0.9/2016-07-04-4/fair-nonlinear.sol

Solver - finished
